Mack/Bortfeldt(2008)
Bin-Packing-Problem
BP-RG/SBSBPP/SSSCSP
Testcase-ID	10
Problem-ID	116
no_item_types	535
no_items	1403
CONTAINER_DATA (l,w,h)	432	79	1
ITEMS_DATA:
Type	x	y	z	no_items
1	54	50	1	2
2	57	47	1	1
3	53	49	1	6
4	57	45	1	2
5	54	47	1	4
6	57	44	1	4
7	53	47	1	3
8	54	45	1	3
9	56	43	1	4
10	50	46	1	2
11	60	38	1	1
12	59	38	1	2
13	53	42	1	1
14	57	39	1	5
15	49	45	1	2
16	56	39	1	4
17	50	43	1	3
18	48	44	1	4
19	49	43	1	3
20	50	42	1	3
21	52	40	1	3
22	53	39	1	3
23	49	42	1	4
24	60	34	1	2
25	46	44	1	4
26	53	38	1	2
27	50	40	1	5
28	54	37	1	4
29	57	35	1	2
30	49	40	1	3
31	56	35	1	2
32	57	34	1	3
33	46	42	1	4
34	49	39	1	4
35	45	42	1	5
36	51	37	1	2
37	48	39	1	2
38	55	34	1	4
39	49	38	1	3
40	59	31	1	1
41	48	38	1	2
42	52	35	1	4
43	55	33	1	3
44	49	37	1	3
45	43	42	1	6
46	45	40	1	1
47	50	36	1	3
48	46	39	1	3
49	54	33	1	4
50	57	31	1	3
51	42	42	1	3
52	45	39	1	1
53	50	35	1	3
54	53	33	1	2
55	46	38	1	1
56	58	30	1	2
57	47	37	1	2
58	56	31	1	1
59	51	34	1	1
60	42	41	1	4
61	44	39	1	1
62	49	35	1	5
63	59	29	1	3
64	45	38	1	3
65	57	30	1	4
66	55	31	1	3
67	50	34	1	3
68	47	36	1	5
69	51	33	1	2
70	43	39	1	3
71	54	31	1	1
72	49	34	1	4
73	52	32	1	1
74	46	36	1	3
75	50	33	1	3
76	47	35	1	3
77	41	40	1	2
78	51	32	1	3
79	48	34	1	2
80	49	33	1	1
81	46	35	1	4
82	40	40	1	1
83	50	32	1	2
84	41	39	1	1
85	58	27	1	3
86	46	34	1	3
87	40	39	1	1
88	41	38	1	3
89	42	37	1	2
90	43	36	1	4
91	44	35	1	4
92	53	29	1	4
93	51	30	1	3
94	39	39	1	3
95	46	33	1	4
96	47	32	1	1
97	50	30	1	1
98	45	33	1	1
99	53	28	1	2
100	39	38	1	3
101	40	37	1	2
102	41	36	1	3
103	59	25	1	5
104	46	32	1	2
105	40	36	1	5
106	55	26	1	2
107	46	31	1	1
108	49	29	1	2
109	43	33	1	3
110	47	30	1	1
111	38	37	1	3
112	39	36	1	3
113	50	28	1	4
114	56	25	1	1
115	45	31	1	3
116	41	34	1	2
117	42	33	1	1
118	46	30	1	2
119	49	28	1	2
120	38	36	1	3
121	44	31	1	2
122	47	29	1	3
123	45	30	1	1
124	58	23	1	4
125	43	31	1	2
126	53	25	1	1
127	44	30	1	3
128	40	33	1	2
129	55	24	1	4
130	41	32	1	1
131	59	22	1	3
132	54	24	1	4
133	44	29	1	2
134	58	22	1	2
135	44	29	1	4
136	51	25	1	6
137	41	31	1	2
138	47	27	1	2
139	45	28	1	2
140	38	33	1	2
141	39	32	1	4
142	43	29	1	2
143	40	31	1	2
144	36	34	1	4
145	42	29	1	2
146	38	32	1	3
147	45	27	1	3
148	39	31	1	2
149	40	30	1	3
150	48	25	1	1
151	46	26	1	2
152	52	23	1	2
153	37	32	1	3
154	38	31	1	1
155	42	28	1	3
156	39	30	1	2
157	43	27	1	2
158	40	29	1	2
159	55	21	1	1
160	35	33	1	2
161	36	32	1	3
162	48	24	1	3
163	36	32	1	3
164	50	23	1	3
165	44	26	1	2
166	38	30	1	1
167	39	29	1	1
168	34	33	1	1
169	35	32	1	3
170	36	31	1	2
171	41	27	1	2
172	48	23	1	4
173	38	29	1	3
174	39	28	1	1
175	34	32	1	5
176	35	31	1	3
177	47	23	1	2
178	36	30	1	3
179	49	22	1	5
180	43	25	1	3
181	37	29	1	2
182	51	21	1	3
183	41	26	1	3
184	38	28	1	2
185	46	23	1	1
186	33	32	1	3
187	42	25	1	3
188	50	21	1	2
189	37	28	1	2
190	47	22	1	5
191	49	21	1	4
192	38	27	1	1
193	54	19	1	2
194	41	25	1	1
195	39	26	1	2
196	46	22	1	3
197	44	23	1	2
198	59	17	1	2
199	50	20	1	2
200	40	25	1	2
201	37	27	1	3
202	43	23	1	6
203	52	19	1	4
204	47	21	1	4
205	58	17	1	4
206	41	24	1	3
207	49	20	1	1
208	54	18	1	3
209	44	22	1	3
210	46	21	1	2
211	37	26	1	2
212	48	20	1	3
213	33	29	1	2
214	34	28	1	5
215	50	19	1	2
216	38	25	1	4
217	50	19	1	2
218	43	22	1	2
219	47	20	1	3
220	36	26	1	3
221	39	24	1	1
222	36	26	1	3
223	32	29	1	1
224	37	25	1	3
225	44	21	1	2
226	33	28	1	3
227	40	23	1	3
228	34	27	1	3
229	57	16	1	4
230	38	24	1	4
231	57	16	1	4
232	48	19	1	4
233	35	26	1	3
234	41	22	1	3
235	53	17	1	5
236	36	25	1	2
237	31	29	1	3
238	47	19	1	2
239	33	27	1	5
240	37	24	1	2
241	34	26	1	5
242	44	20	1	1
243	40	22	1	1
244	35	25	1	2
245	46	19	1	1
246	38	23	1	2
247	31	28	1	5
248	51	17	1	2
249	32	27	1	2
250	36	24	1	2
251	32	27	1	4
252	36	24	1	2
253	32	27	1	4
254	39	22	1	3
255	37	23	1	1
256	34	25	1	2
257	47	18	1	3
258	29	29	1	1
259	42	20	1	3
260	30	28	1	1
261	40	21	1	2
262	42	20	1	2
263	30	28	1	3
264	31	27	1	6
265	38	22	1	3
266	32	26	1	1
267	36	23	1	1
268	39	21	1	2
269	43	19	1	2
270	48	17	1	1
271	54	15	1	3
272	45	18	1	3
273	31	26	1	3
274	50	16	1	3
275	57	14	1	3
276	38	21	1	8
277	42	19	1	3
278	53	15	1	1
279	36	22	1	2
280	44	18	1	4
281	28	28	1	1
282	49	16	1	1
283	34	23	1	1
284	46	17	1	1
285	52	15	1	2
286	30	26	1	1
287	39	20	1	1
288	52	15	1	2
289	37	21	1	1
290	31	25	1	5
291	35	22	1	2
292	55	14	1	5
293	32	24	1	4
294	48	16	1	2
295	40	19	1	2
296	33	23	1	2
297	28	27	1	1
298	36	21	1	3
299	54	14	1	1
300	36	21	1	2
301	28	27	1	2
302	42	18	1	4
303	36	21	1	2
304	42	18	1	1
305	29	26	1	1
306	47	16	1	2
307	34	22	1	1
308	53	14	1	4
309	57	13	1	2
310	39	19	1	3
311	41	18	1	4
312	46	16	1	3
313	32	23	1	3
314	46	16	1	2
315	33	22	1	4
316	36	20	1	4
317	45	16	1	1
318	40	18	1	6
319	51	14	1	4
320	42	17	1	3
321	51	14	1	3
322	44	16	1	1
323	37	19	1	2
324	39	18	1	4
325	27	26	1	2
326	28	25	1	2
327	50	14	1	3
328	41	17	1	3
329	29	24	1	2
330	58	12	1	3
331	33	21	1	4
332	57	12	1	2
333	38	18	1	1
334	57	12	1	1
335	36	19	1	1
336	34	20	1	4
337	26	26	1	2
338	27	25	1	5
339	45	15	1	6
340	27	25	1	2
341	32	21	1	4
342	55	12	1	3
343	33	20	1	2
344	41	16	1	1
345	31	21	1	2
346	50	13	1	4
347	54	12	1	1
348	27	24	1	3
349	36	18	1	3
350	27	24	1	3
351	34	19	1	2
352	38	17	1	1
353	46	14	1	2
354	29	22	1	2
355	58	11	1	2
356	53	12	1	5
357	30	21	1	2
358	37	17	1	1
359	39	16	1	2
360	31	20	1	2
361	28	22	1	2
362	41	15	1	2
363	34	18	1	1
364	36	17	1	4
365	47	13	1	4
366	29	21	1	2
367	38	16	1	1
368	55	11	1	1
369	25	24	1	2
370	40	15	1	2
371	26	23	1	4
372	35	17	1	5
373	27	22	1	4
374	37	16	1	3
375	28	21	1	1
376	45	13	1	2
377	39	15	1	2
378	29	20	1	1
379	34	17	1	3
380	32	18	1	2
381	24	24	1	2
382	25	23	1	3
383	41	14	1	5
384	26	22	1	2
385	38	15	1	3
386	30	19	1	2
387	27	21	1	3
388	47	12	1	2
389	33	17	1	5
390	35	16	1	3
391	56	10	1	3
392	28	20	1	2
393	35	16	1	6
394	31	18	1	2
395	37	15	1	1
396	46	12	1	4
397	24	23	1	2
398	25	22	1	3
399	39	14	1	3
400	32	17	1	3
401	36	15	1	3
402	45	12	1	2
403	36	15	1	1
404	30	18	1	2
405	28	19	1	1
406	25	21	1	1
407	40	13	1	4
408	26	20	1	2
409	27	19	1	1
410	32	16	1	3
411	34	15	1	2
412	30	17	1	2
413	23	22	1	2
414	46	11	1	3
415	42	12	1	5
416	24	21	1	2
417	25	20	1	4
418	31	16	1	6
419	33	15	1	2
420	26	19	1	3
421	29	17	1	3
422	41	12	1	2
423	35	14	1	3
424	27	18	1	3
425	22	22	1	1
426	23	21	1	2
427	37	13	1	3
428	32	15	1	1
429	24	20	1	1
430	48	10	1	3
431	30	16	1	4
432	40	12	1	3
433	30	16	1	2
434	24	20	1	2
435	28	17	1	3
436	25	19	1	2
437	47	10	1	2
438	31	15	1	1
439	22	21	1	3
440	23	20	1	3
441	27	17	1	1
442	24	19	1	2
443	35	13	1	2
444	25	18	1	4
445	32	14	1	3
446	34	13	1	1
447	26	17	1	4
448	22	20	1	3
449	23	19	1	1
450	29	15	1	2
451	31	14	1	3
452	24	18	1	2
453	43	10	1	2
454	33	13	1	3
455	25	17	1	2
456	28	15	1	3
457	30	14	1	4
458	21	20	1	3
459	30	14	1	3
460	21	20	1	2
461	38	11	1	2
462	32	13	1	2
463	26	16	1	1
464	23	18	1	3
465	27	15	1	1
466	25	16	1	4
467	21	19	1	4
468	22	18	1	1
469	28	14	1	2
470	23	17	1	3
471	26	15	1	4
472	39	10	1	4
473	38	10	1	2
474	27	14	1	3
475	25	15	1	4
476	22	17	1	1
477	31	12	1	2
478	37	10	1	5
479	23	16	1	3
480	28	13	1	2
481	19	19	1	3
482	30	12	1	2
483	20	18	1	4
484	21	17	1	3
485	22	16	1	2
486	27	13	1	1
487	25	14	1	3
488	29	12	1	2
489	23	15	1	3
490	20	17	1	1
491	34	10	1	2
492	20	17	1	6
493	30	11	1	1
494	19	17	1	4
495	32	10	1	3
496	29	11	1	1
497	21	15	1	4
498	24	13	1	1
499	28	11	1	5
500	18	17	1	3
501	30	10	1	4
502	23	13	1	3
503	29	10	1	2
504	24	12	1	2
505	18	16	1	5
506	24	12	1	2
507	18	16	1	5
508	19	15	1	1
509	20	14	1	3
510	17	16	1	2
511	27	10	1	1
512	19	14	1	2
513	22	12	1	2
514	20	13	1	3
515	16	16	1	5
516	18	14	1	1
517	19	13	1	1
518	22	11	1	3
519	24	10	1	4
520	18	13	1	3
521	15	15	1	4
522	19	11	1	2
523	16	13	1	1
524	17	12	1	1
525	18	11	1	2
526	14	14	1	6
527	15	13	1	1
528	17	11	1	6
529	15	12	1	4
530	18	10	1	2
531	17	10	1	2
532	14	12	1	3
533	15	11	1	1
534	16	10	1	3
535	15	10	1	3
